2850
3111
3352
3457
3513
3542
3567
3579
3583
3588
3596
3603
3612
3615
3616
3619
3621
3624
3625
3625
3625
3625
3625
3625
3625
3625
3625
3625
3625
3625
3625
3625
3625
3625
3625
3625
3625
3625
3626
3626
3626
3626
3627
3627
3628
3629
3631
3632
3634
3637
3640
3641
3641
3641
3641
3641
3641
3641
3641
3641
3641
3641
3641
3641
3641
3641
3641
3641
3641
3641
3641
3641
3641
3641
3641
3642
3642
3643
3643
3644
3644
3644
3644
3644
3644
3644
3644
3644
3644
3645
3645
3645
3647
3649
3651
3654
3658
3666
3672
